40 40
95 77 1
50 53 1
11 30 1
100 95 1
73 73 1
19 18 1
60 19 1
52 99 1
83 12 1
76 49 1
87 30 1
3 13 1
48 84 1
77 68 1
79 19 1
76 26 1
24 11 1
11 31 1
60 73 1
26 60 1
99 48 1
99 26 1
84 15 1
42 72 1
95 85 1
98 76 1
41 1 1
46 49 1
68 42 1
96 36 1
53 20 1
94 15 1
7 77 1
16 96 1
75 93 1
74 24 1
34 78 1
12 77 1
96 77 1
9 66 1
300 300 
300 300 
300 300 
300 300 
300 300 
300 300 
300 300 
300 300 
300 300 
300 300 
300 300 
300 300 
300 300 
300 300 
300 300 
300 300 
300 300 
300 300 
300 300 
300 300 
300 300 
300 300 
300 300 
300 300 
300 300 
300 300 
300 300 
300 300 
300 300 
300 300 
300 300 
300 300 
300 300 
300 300 
300 300 
300 300 
300 300 
300 300 
300 300 
300 300 
